NAME : data_9_4_tsptw.tsptw
TYPE : TSPTW
DIMENSION : 10
EDGE_WEIGHT_TYPE : EXPLICIT
EDGE_WEIGHT_FORMAT : FULL_MATRIX
EDGE_WEIGHT_SECTION
0 3107 3046 3245 3093 3150 3120 3084 3049 3009
2879 0 880 272 596 633 416 344 691 652
2856 735 0 716 530 459 430 496 278 239
2934 333 856 0 416 473 336 264 667 627
2791 241 850 186 0 380 311 239 773 697
2826 275 631 256 70 0 173 239 458 419
2772 396 568 325 192 277 0 66 379 340
2732 469 640 259 264 349 72 0 451 412
2948 659 247 640 454 384 354 420 0 46
2901 612 240 593 407 337 307 373 39 0
TIME_WINDOW_SECTION
1 0 600000
2 9000 14400
3 7200 12600
4 9000 14400
5 1800 7200
6 12600 18000
7 12600 18000
8 1800 12600
9 10800 21600
10 9000 14400
DEPOT_SECTION
1
-1
EOF